84
Route #1: 1 40 
Route #2: 2 27 
Route #3: 3 24 41 
Route #4: 4 17 30 
Route #5: 5 28 38 48 
Route #6: 6 34 
Route #7: 7 43 
Route #8: 8 25 56 
Route #9: 9 39 58 
Route #10: 10 20 46 60 
Route #11: 11 53 
Route #12: 12 33 61 
Route #13: 13 51 
Route #14: 14 50 
Route #15: 15 45 64 
Route #16: 16 31 
Route #17: 18 36 
Route #18: 19 62 72 
Route #19: 21 47 
Route #20: 22 49 73 
Route #21: 23 44 66 
Route #22: 26 52 
Route #23: 29 67 79 
Route #24: 32 54 
Route #25: 35 59 
Route #26: 37 42 78 
Route #27: 55 96 
Route #28: 57 91 
Route #29: 63 89 
Route #30: 65 92 
Route #31: 68 111 
Route #32: 69 101 125 
Route #33: 70 103 
Route #34: 71 109 
Route #35: 74 97 116 
Route #36: 75 118 
Route #37: 76 100 140 
Route #38: 77 99 
Route #39: 80 104 122 
Route #40: 81 119 
Route #41: 82 120 
Route #42: 83 106 132 
Route #43: 84 108 128 
Route #44: 85 124 
Route #45: 86 107 
Route #46: 87 126 
Route #47: 88 110 150 
Route #48: 90 117 129 144 
Route #49: 93 115 157 
Route #50: 94 130 
Route #51: 95 114 123 151 
Route #52: 98 127 136 
Route #53: 102 131 141 
Route #54: 105 143 
Route #55: 112 152 
Route #56: 113 147 
Route #57: 121 165 
Route #58: 133 146 172 180 
Route #59: 134 156 192 
Route #60: 135 174 
Route #61: 137 170 
Route #62: 138 171 
Route #63: 139 148 193 
Route #64: 142 168 178 196 
Route #65: 145 166 182 
Route #66: 149 179 198 
Route #67: 153 181 
Route #68: 154 173 
Route #69: 155 176 
Route #70: 158 177 
Route #71: 159 194 
Route #72: 160 184 
Route #73: 161 175 187 
Route #74: 162 186 
Route #75: 163 200 
Route #76: 164 195 
Route #77: 167 190 
Route #78: 169 185 
Route #79: 183 
Route #80: 188 
Route #81: 189 
Route #82: 191 
Route #83: 197 
Route #84: 199 
Cost 138535.0
